168047.87,51.91,64.37
140797.94,61.95,76.82
179546.65,48.58,60.25
167696.53,52.01,64.5
181684.83,48.01,59.54
165124.82,52.82,65.51
160162.98,54.46,67.54
162921.49,53.54,66.39
148677.71,58.67,72.75
159813.02,54.58,67.68
158741.03,54.95,68.14
190307.42,45.83,56.84
164092.49,53.16,65.92
167559.04,52.06,64.56
167925.18,51.94,64.41
161674.93,53.95,66.9
154966.27,56.29,69.8
146182.19,59.67,73.99
166546.92,52.37,64.95
160344.52,54.4,67.46
